0 89 60 83 5 84 17 45 46 47 49 19 11 62 10 88 7 48 82 18 52 27 69 1 51 33 50 53 0
0 31 70 30 32 20 66 71 35 34 9 76 80 29 24 55 25 39 23 75 22 41 74 72 73 21 40 58 0
0 28 68 12 54 4 26 13 2 42 57 15 43 14 44 38 86 16 85 98 37 59 99 96 95 94 0
